93 20 67 17 24 41 53 47 3 35 66 34 65 63 92 45 79 87 40 86 95 84 44 70 81 68 28 42 78 8 88 48 18 21 27 29 54 25 71 97 57 73 38 85 1 83 0 5 89 14 46 43 31 69 74 60 55 51 72 30 4 2 82 94 56 15 80 77 11 6 75 49 26 33 10 76 52 64 36 7 58 50 39 13 59 23 61 37 12 19 96 22 32 91 99 90 16 98 9 62 

